p td 120 56
0 73
3 81
3 103
8 54
15 53
16 40
17 65
18 28
19 73
20 29
22 40
22 114
23 28
23 87
23 104
24 96
27 67
27 99
28 114
29 78
30 41
31 100
33 85
37 55
38 99
41 111
42 65
48 115
49 57
49 64
50 93
54 113
57 70
57 91
58 71
58 98
62 90
63 67
64 78
66 93
67 81
67 103
69 94
71 89
72 95
73 78
77 89
78 100
79 113
81 97
83 92
83 102
85 118
86 91
90 110
106 110
